p cnf 323 1630
c p weight 10 1 0
c p weight -10 1 0
c p weight 11 0 0
c p weight -11 1 0
c p weight 14 0 0
c p weight -14 1 0
c p weight 15 1 0
c p weight -15 1 0
c p weight 18 -0.1335612396259832357348074083347455598413944244384765625 0
c p weight -18 1 0
c p weight 19 0.99104056186897349078890329110436141490936279296875 0
c p weight -19 1 0
c p weight 22 0 0
c p weight -22 1 0
c p weight 23 1 0
c p weight -23 1 0
c p weight 26 -1 0
c p weight -26 1 0
c p weight 27 0 0
c p weight -27 1 0
c p weight 30 -0.007515356911958460950362592711826437152922153472900390625 0
c p weight -30 1 0
c p weight 31 -0.999971759306474528017361080856062471866607666015625 0
c p weight -31 1 0
c p weight 34 1 0
c p weight -34 1 0
c p weight 35 0 0
c p weight -35 1 0
c p weight 38 0 0
c p weight -38 1 0
c p weight 39 1 0
c p weight -39 1 0
c p weight 42 -0.991511476394992374849834959604777395725250244140625 0
c p weight -42 1 0
c p weight 43 -0.130019199263118168108377403768827207386493682861328125 0
c p weight -43 1 0
c p weight 46 0 0
c p weight -46 1 0
c p weight 47 1 0
c p weight -47 1 0
c p weight 50 -1 0
c p weight -50 1 0
c p weight 51 0 0
c p weight -51 1 0
c p weight 54 -0.99995600138413631707834383632871322333812713623046875 0
c p weight -54 1 0
c p weight 55 0.00938058078421916304023842059223170508630573749542236328125 0
c p weight -55 1 0
c p weight 61 1 0
c p weight -61 1 0
c p weight 62 0 0
c p weight -62 1 0
c p weight 65 0 0
c p weight -65 1 0
c p weight 66 1 0
c p weight -66 1 0
c p weight 69 0.6676589223122142424671210392261855304241180419921875 0
c p weight -69 1 0
c p weight 70 0.74446730180505082952180373467854224145412445068359375 0
c p weight -70 1 0
c p weight 73 0 0
c p weight -73 1 0
c p weight 74 1 0
c p weight -74 1 0
c p weight 77 -1 0
c p weight -77 1 0
c p weight 78 0 0
c p weight -78 1 0
c p weight 81 0.1576963200385755603516457767909741960465908050537109375 0
c p weight -81 1 0
c p weight 82 0.98748765594628629127527119635487906634807586669921875 0
c p weight -82 1 0
c p weight 88 1 0
c p weight -88 1 0
c p weight 89 0 0
c p weight -89 1 0
c p weight 92 0 0
c p weight -92 1 0
c p weight 93 1 0
c p weight -93 1 0
c p weight 96 -0.3205694895363857543912899927818216383457183837890625 0
c p weight -96 1 0
c p weight 97 -0.94722500092553563177943942719139158725738525390625 0
c p weight -97 1 0
c p weight 100 0 0
c p weight -100 1 0
c p weight 101 1 0
c p weight -101 1 0
c p weight 104 -1 0
c p weight -104 1 0
c p weight 105 0 0
c p weight -105 1 0
c p weight 108 0.849871234472090453238024565507657825946807861328125 0
c p weight -108 1 0
c p weight 109 0.526990402964688797737835557200014591217041015625 0
c p weight -109 1 0
c p weight 115 1 0
c p weight -115 1 0
c p weight 116 0 0
c p weight -116 1 0
c p weight 119 0 0
c p weight -119 1 0
c p weight 120 1 0
c p weight -120 1 0
c p weight 123 -0.06611814736078959475751304353252635337412357330322265625 0
c p weight -123 1 0
c p weight 124 0.99781180118776757748122463453910313546657562255859375 0
c p weight -124 1 0
c p weight 127 0 0
c p weight -127 1 0
c p weight 128 1 0
c p weight -128 1 0
c p weight 131 -1 0
c p weight -131 1 0
c p weight 132 0 0
c p weight -132 1 0
c p weight 135 -0.3950720127546685223052236324292607605457305908203125 0
c p weight -135 1 0
c p weight 136 -0.91865015361560520279482489058864302933216094970703125 0
c p weight -136 1 0
c p weight 142 1 0
c p weight -142 1 0
c p weight 143 0 0
c p weight -143 1 0
c p weight 146 0 0
c p weight -146 1 0
c p weight 147 1 0
c p weight -147 1 0
c p weight 150 -0.486641861830141631006796387737267650663852691650390625 0
c p weight -150 1 0
c p weight 151 -0.873601567257347166872705201967619359493255615234375 0
c p weight -151 1 0
c p weight 154 0 0
c p weight -154 1 0
c p weight 155 1 0
c p weight -155 1 0
c p weight 158 -1 0
c p weight -158 1 0
c p weight 159 0 0
c p weight -159 1 0
c p weight 162 0.957428415249673481213221748475916683673858642578125 0
c p weight -162 1 0
c p weight 163 -0.288670798094470881789419536289642564952373504638671875 0
c p weight -163 1 0
c p weight 169 1 0
c p weight -169 1 0
c p weight 170 0 0
c p weight -170 1 0
c p weight 173 0 0
c p weight -173 1 0
c p weight 174 1 0
c p weight -174 1 0
c p weight 177 -0.9996923050643833352779665801790542900562286376953125 0
c p weight -177 1 0
c p weight 178 -0.0248051445280987915842363378260415629483759403228759765625 0
c p weight -178 1 0
c p weight 181 0 0
c p weight -181 1 0
c p weight 182 1 0
c p weight -182 1 0
c p weight 185 -1 0
c p weight -185 1 0
c p weight 186 0 0
c p weight -186 1 0
c p weight 189 -0.7602995870341702211447909576236270368099212646484375 0
c p weight -189 1 0
c p weight 190 -0.649572580975882996057180207571946084499359130859375 0
c p weight -190 1 0
c p weight 196 1 0
c p weight -196 1 0
c p weight 197 0 0
c p weight -197 1 0
c p weight 200 0 0
c p weight -200 1 0
c p weight 201 1 0
c p weight -201 1 0
c p weight 204 0.99706717591611571105403299952740781009197235107421875 0
c p weight -204 1 0
c p weight 205 0.0765313446285997012186186339022242464125156402587890625 0
c p weight -205 1 0
c p weight 208 0 0
c p weight -208 1 0
c p weight 209 1 0
c p weight -209 1 0
c p weight 212 -1 0
c p weight -212 1 0
c p weight 213 0 0
c p weight -213 1 0
c p weight 216 -0.176536506883414434643242429956444539129734039306640625 0
c p weight -216 1 0
c p weight 217 -0.98429409311313154073985742797958664596080780029296875 0
c p weight -217 1 0
c p weight 223 1 0
c p weight -223 1 0
c p weight 224 0 0
c p weight -224 1 0
c p weight 227 0 0
c p weight -227 1 0
c p weight 228 1 0
c p weight -228 1 0
c p weight 231 -0.383385492828330232129019350395537912845611572265625 0
c p weight -231 1 0
c p weight 232 0.92358841693082005530612832444603554904460906982421875 0
c p weight -232 1 0
c p weight 235 0 0
c p weight -235 1 0
c p weight 236 1 0
c p weight -236 1 0
c p weight 239 -1 0
c p weight -239 1 0
c p weight 240 0 0
c p weight -240 1 0
c p weight 243 -0.260089697491162230580385994471726007759571075439453125 0
c p weight -243 1 0
c p weight 244 0.96558445993033448218056946643628180027008056640625 0
c p weight -244 1 0
c p weight 250 1 0
c p weight -250 1 0
c p weight 251 0 0
c p weight -251 1 0
c p weight 254 0 0
c p weight -254 1 0
c p weight 255 1 0
c p weight -255 1 0
c p weight 258 -0.8694835850581246194934692539391107857227325439453125 0
c p weight -258 1 0
c p weight 259 0.4939618358886352922354490146972239017486572265625 0
c p weight -259 1 0
c p weight 262 0 0
c p weight -262 1 0
c p weight 263 1 0
c p weight -263 1 0
c p weight 266 -1 0
c p weight -266 1 0
c p weight 267 0 0
c p weight -267 1 0
c p weight 270 0.6268592624517481670665119963814504444599151611328125 0
c p weight -270 1 0
c p weight 271 0.77913250803598887994638744203257374465465545654296875 0
c p weight -271 1 0
c p weight 277 1 0
c p weight -277 1 0
c p weight 278 0 0
c p weight -278 1 0
c p weight 281 0 0
c p weight -281 1 0
c p weight 282 1 0
c p weight -282 1 0
c p weight 285 0.220743702715624878774036687900661490857601165771484375 0
c p weight -285 1 0
c p weight 286 0.97533185004458655686931933814776130020618438720703125 0
c p weight -286 1 0
c p weight 289 0 0
c p weight -289 1 0
c p weight 290 1 0
c p weight -290 1 0
c p weight 293 -1 0
c p weight -293 1 0
c p weight 294 0 0
c p weight -294 1 0
c p weight 297 -0.69969667950910174880618797033093869686126708984375 0
c p weight -297 1 0
c p weight 298 0.714440030152242666616757560404948890209197998046875 0
c p weight -298 1 0
c p weight 301 1 0
c p weight -301 1 0
c p weight 302 0 0
c p weight -302 1 0
c p weight 305 0 0
c p weight -305 1 0
c p weight 306 1 0
c p weight -306 1 0
c p weight 309 0.96448382044585267980352227823459543287754058837890625 0
c p weight -309 1 0
c p weight 310 0.264141931730220214102899944919045083224773406982421875 0
c p weight -310 1 0
c p weight 313 0 0
c p weight -313 1 0
c p weight 314 1 0
c p weight -314 1 0
c p weight 317 -1 0
c p weight -317 1 0
c p weight 318 0 0
c p weight -318 1 0
c p weight 321 -0.458834083137905912597176438794122077524662017822265625 0
c p weight -321 1 0
c p weight 322 -0.8885219660486718407099715477670542895793914794921875 0
c p weight -322 1 0
c p weight 319 -1 0
c p weight -319 1 0
c p weight 323 0.5 0
323 0
-7 0
-5 0
-3 0
-1 0
8 -7 1 0
8 -7 2 0
-8 7 1 0
-8 7 2 0
8 -9 -7 0
-8 -9 7 0
8 9 7 -1 -2 0
-8 9 -7 -1 -2 0
9 1 -2 0
-9 1 2 0
-10 1 0
9 -10 -2 0
-9 -10 2 0
9 10 -1 2 0
-9 10 -1 -2 0
-11 1 0
9 -11 2 0
-9 -11 -2 0
9 11 -1 -2 0
-9 11 -1 2 0
12 13 -8 0
12 -8 9 0
-12 13 8 0
-12 8 9 0
12 -8 -1 0
-12 8 -1 0
12 -13 8 1 -9 0
-12 -13 -8 1 -9 0
13 -1 9 0
-13 1 9 0
-14 9 0
13 -14 -1 0
-13 -14 1 0
13 14 1 -9 0
-13 14 -1 -9 0
-15 9 0
13 -15 1 0
-13 -15 -1 0
13 15 -1 -9 0
-13 15 1 -9 0
16 -12 13 0
16 -12 9 0
-16 12 13 0
-16 12 9 0
16 -17 -12 0
-16 -17 12 0
16 17 12 -13 -9 0
-16 17 -12 -13 -9 0
17 13 -9 0
-17 13 9 0
-18 13 0
17 -18 -9 0
-17 -18 9 0
17 18 -13 9 0
-17 18 -13 -9 0
-19 13 0
17 -19 9 0
-17 -19 -9 0
17 19 -13 -9 0
-17 19 -13 9 0
20 21 -16 0
20 -16 17 0
-20 21 16 0
-20 16 17 0
20 -16 -13 0
-20 16 -13 0
20 -21 16 13 -17 0
-20 -21 -16 13 -17 0
21 -13 17 0
-21 13 17 0
-22 17 0
21 -22 -13 0
-21 -22 13 0
21 22 13 -17 0
-21 22 -13 -17 0
-23 17 0
21 -23 13 0
-21 -23 -13 0
21 23 -13 -17 0
-21 23 13 -17 0
24 -20 21 0
24 -20 17 0
-24 20 21 0
-24 20 17 0
24 -25 -20 0
-24 -25 20 0
24 25 20 -21 -17 0
-24 25 -20 -21 -17 0
25 21 -17 0
-25 21 17 0
-26 21 0
25 -26 -17 0
-25 -26 17 0
25 26 -21 17 0
-25 26 -21 -17 0
-27 21 0
25 -27 17 0
-25 -27 -17 0
25 27 -21 -17 0
-25 27 -21 17 0
28 -24 21 0
28 -24 25 0
-28 24 21 0
-28 24 25 0
28 -29 -24 0
-28 -29 24 0
28 29 24 -21 -25 0
-28 29 -24 -21 -25 0
29 21 -25 0
-29 21 25 0
-30 21 0
29 -30 -25 0
-29 -30 25 0
29 30 -21 25 0
-29 30 -21 -25 0
-31 21 0
29 -31 25 0
-29 -31 -25 0
29 31 -21 -25 0
-29 31 -21 25 0
32 -28 3 0
32 -28 4 0
-32 28 3 0
-32 28 4 0
32 -33 -28 0
-32 -33 28 0
32 33 28 -3 -4 0
-32 33 -28 -3 -4 0
33 3 -4 0
-33 3 4 0
-34 3 0
33 -34 -4 0
-33 -34 4 0
33 34 -3 4 0
-33 34 -3 -4 0
-35 3 0
33 -35 4 0
-33 -35 -4 0
33 35 -3 -4 0
-33 35 -3 4 0
36 37 -32 0
36 -32 33 0
-36 37 32 0
-36 32 33 0
36 -32 -3 0
-36 32 -3 0
36 -37 32 3 -33 0
-36 -37 -32 3 -33 0
37 -3 33 0
-37 3 33 0
-38 33 0
37 -38 -3 0
-37 -38 3 0
37 38 3 -33 0
-37 38 -3 -33 0
-39 33 0
37 -39 3 0
-37 -39 -3 0
37 39 -3 -33 0
-37 39 3 -33 0
40 -36 37 0
40 -36 33 0
-40 36 37 0
-40 36 33 0
40 -41 -36 0
-40 -41 36 0
40 41 36 -37 -33 0
-40 41 -36 -37 -33 0
41 37 -33 0
-41 37 33 0
-42 37 0
41 -42 -33 0
-41 -42 33 0
41 42 -37 33 0
-41 42 -37 -33 0
-43 37 0
41 -43 33 0
-41 -43 -33 0
41 43 -37 -33 0
-41 43 -37 33 0
44 45 -40 0
44 -40 41 0
-44 45 40 0
-44 40 41 0
44 -40 -37 0
-44 40 -37 0
44 -45 40 37 -41 0
-44 -45 -40 37 -41 0
45 -37 41 0
-45 37 41 0
-46 41 0
45 -46 -37 0
-45 -46 37 0
45 46 37 -41 0
-45 46 -37 -41 0
-47 41 0
45 -47 37 0
-45 -47 -37 0
45 47 -37 -41 0
-45 47 37 -41 0
48 -44 45 0
48 -44 41 0
-48 44 45 0
-48 44 41 0
48 -49 -44 0
-48 -49 44 0
48 49 44 -45 -41 0
-48 49 -44 -45 -41 0
49 45 -41 0
-49 45 41 0
-50 45 0
49 -50 -41 0
-49 -50 41 0
49 50 -45 41 0
-49 50 -45 -41 0
-51 45 0
49 -51 41 0
-49 -51 -41 0
49 51 -45 -41 0
-49 51 -45 41 0
52 -48 45 0
52 -48 49 0
-52 48 45 0
-52 48 49 0
52 -53 -48 0
-52 -53 48 0
52 53 48 -45 -49 0
-52 53 -48 -45 -49 0
53 45 -49 0
-53 45 49 0
-54 45 0
53 -54 -49 0
-53 -54 49 0
53 54 -45 49 0
-53 54 -45 -49 0
-55 45 0
53 -55 49 0
-53 -55 -49 0
53 55 -45 -49 0
-53 55 -45 49 0
56 -52 21 0
56 -52 53 0
-56 52 21 0
-56 52 53 0
56 -52 45 -29 0
56 -52 -45 29 0
-56 52 45 -29 0
-56 52 -45 29 0
56 52 -21 45 29 -53 0
56 52 -21 -45 -29 -53 0
-56 -52 -21 45 29 -53 0
-56 -52 -21 -45 -29 -53 0
58 21 -45 0
58 -21 45 0
-58 21 45 0
-58 -21 -45 0
57 29 -53 0
57 -29 53 0
-57 29 53 0
-57 -29 -53 0
59 -56 5 0
59 -56 6 0
-59 56 5 0
-59 56 6 0
59 -60 -56 0
-59 -60 56 0
59 60 56 -5 -6 0
-59 60 -56 -5 -6 0
60 5 -6 0
-60 5 6 0
-61 5 0
60 -61 -6 0
-60 -61 6 0
60 61 -5 6 0
-60 61 -5 -6 0
-62 5 0
60 -62 6 0
-60 -62 -6 0
60 62 -5 -6 0
-60 62 -5 6 0
63 64 -59 0
63 -59 60 0
-63 64 59 0
-63 59 60 0
63 -59 -5 0
-63 59 -5 0
63 -64 59 5 -60 0
-63 -64 -59 5 -60 0
64 -5 60 0
-64 5 60 0
-65 60 0
64 -65 -5 0
-64 -65 5 0
64 65 5 -60 0
-64 65 -5 -60 0
-66 60 0
64 -66 5 0
-64 -66 -5 0
64 66 -5 -60 0
-64 66 5 -60 0
67 -63 64 0
67 -63 60 0
-67 63 64 0
-67 63 60 0
67 -68 -63 0
-67 -68 63 0
67 68 63 -64 -60 0
-67 68 -63 -64 -60 0
68 64 -60 0
-68 64 60 0
-69 64 0
68 -69 -60 0
-68 -69 60 0
68 69 -64 60 0
-68 69 -64 -60 0
-70 64 0
68 -70 60 0
-68 -70 -60 0
68 70 -64 -60 0
-68 70 -64 60 0
71 72 -67 0
71 -67 68 0
-71 72 67 0
-71 67 68 0
71 -67 -64 0
-71 67 -64 0
71 -72 67 64 -68 0
-71 -72 -67 64 -68 0
72 -64 68 0
-72 64 68 0
-73 68 0
72 -73 -64 0
-72 -73 64 0
72 73 64 -68 0
-72 73 -64 -68 0
-74 68 0
72 -74 64 0
-72 -74 -64 0
72 74 -64 -68 0
-72 74 64 -68 0
75 -71 72 0
75 -71 68 0
-75 71 72 0
-75 71 68 0
75 -76 -71 0
-75 -76 71 0
75 76 71 -72 -68 0
-75 76 -71 -72 -68 0
76 72 -68 0
-76 72 68 0
-77 72 0
76 -77 -68 0
-76 -77 68 0
76 77 -72 68 0
-76 77 -72 -68 0
-78 72 0
76 -78 68 0
-76 -78 -68 0
76 78 -72 -68 0
-76 78 -72 68 0
79 -75 72 0
79 -75 76 0
-79 75 72 0
-79 75 76 0
79 -80 -75 0
-79 -80 75 0
79 80 75 -72 -76 0
-79 80 -75 -72 -76 0
80 72 -76 0
-80 72 76 0
-81 72 0
80 -81 -76 0
-80 -81 76 0
80 81 -72 76 0
-80 81 -72 -76 0
-82 72 0
80 -82 76 0
-80 -82 -76 0
80 82 -72 -76 0
-80 82 -72 76 0
83 -79 21 0
83 -79 80 0
-83 79 21 0
-83 79 80 0
83 -79 72 -57 0
83 -79 -72 57 0
-83 79 72 -57 0
-83 79 -72 57 0
83 79 -21 72 57 -80 0
83 79 -21 -72 -57 -80 0
-83 -79 -21 72 57 -80 0
-83 -79 -21 -72 -57 -80 0
85 21 -72 0
85 -21 72 0
-85 21 72 0
-85 -21 -72 0
84 57 -80 0
84 -57 80 0
-84 57 80 0
-84 -57 -80 0
86 -83 21 0
86 -83 84 0
-86 83 21 0
-86 83 84 0
86 -87 -83 0
-86 -87 83 0
86 87 83 -21 -84 0
-86 87 -83 -21 -84 0
87 21 -84 0
-87 21 84 0
-88 21 0
87 -88 -84 0
-87 -88 84 0
87 88 -21 84 0
-87 88 -21 -84 0
-89 21 0
87 -89 84 0
-87 -89 -84 0
87 89 -21 -84 0
-87 89 -21 84 0
90 91 -86 0
90 -86 87 0
-90 91 86 0
-90 86 87 0
90 -86 -21 0
-90 86 -21 0
90 -91 86 21 -87 0
-90 -91 -86 21 -87 0
91 -21 87 0
-91 21 87 0
-92 87 0
91 -92 -21 0
-91 -92 21 0
91 92 21 -87 0
-91 92 -21 -87 0
-93 87 0
91 -93 21 0
-91 -93 -21 0
91 93 -21 -87 0
-91 93 21 -87 0
94 -90 91 0
94 -90 87 0
-94 90 91 0
-94 90 87 0
94 -95 -90 0
-94 -95 90 0
94 95 90 -91 -87 0
-94 95 -90 -91 -87 0
95 91 -87 0
-95 91 87 0
-96 91 0
95 -96 -87 0
-95 -96 87 0
95 96 -91 87 0
-95 96 -91 -87 0
-97 91 0
95 -97 87 0
-95 -97 -87 0
95 97 -91 -87 0
-95 97 -91 87 0
98 99 -94 0
98 -94 95 0
-98 99 94 0
-98 94 95 0
98 -94 -91 0
-98 94 -91 0
98 -99 94 91 -95 0
-98 -99 -94 91 -95 0
99 -91 95 0
-99 91 95 0
-100 95 0
99 -100 -91 0
-99 -100 91 0
99 100 91 -95 0
-99 100 -91 -95 0
-101 95 0
99 -101 91 0
-99 -101 -91 0
99 101 -91 -95 0
-99 101 91 -95 0
102 -98 99 0
102 -98 95 0
-102 98 99 0
-102 98 95 0
102 -103 -98 0
-102 -103 98 0
102 103 98 -99 -95 0
-102 103 -98 -99 -95 0
103 99 -95 0
-103 99 95 0
-104 99 0
103 -104 -95 0
-103 -104 95 0
103 104 -99 95 0
-103 104 -99 -95 0
-105 99 0
103 -105 95 0
-103 -105 -95 0
103 105 -99 -95 0
-103 105 -99 95 0
106 -102 99 0
106 -102 103 0
-106 102 99 0
-106 102 103 0
106 -107 -102 0
-106 -107 102 0
106 107 102 -99 -103 0
-106 107 -102 -99 -103 0
107 99 -103 0
-107 99 103 0
-108 99 0
107 -108 -103 0
-107 -108 103 0
107 108 -99 103 0
-107 108 -99 -103 0
-109 99 0
107 -109 103 0
-107 -109 -103 0
107 109 -99 -103 0
-107 109 -99 103 0
110 -106 58 0
110 -106 80 0
-110 106 58 0
-110 106 80 0
110 -106 85 -53 0
110 -106 -85 53 0
-110 106 85 -53 0
-110 106 -85 53 0
110 106 -58 85 53 -80 0
110 106 -58 -85 -53 -80 0
-110 -106 -58 85 53 -80 0
-110 -106 -58 -85 -53 -80 0
112 58 -85 0
112 -58 85 0
-112 58 85 0
-112 -58 -85 0
111 53 -80 0
111 -53 80 0
-111 53 80 0
-111 -53 -80 0
113 -110 58 0
113 -110 111 0
-113 110 58 0
-113 110 111 0
113 -114 -110 0
-113 -114 110 0
113 114 110 -58 -111 0
-113 114 -110 -58 -111 0
114 58 -111 0
-114 58 111 0
-115 58 0
114 -115 -111 0
-114 -115 111 0
114 115 -58 111 0
-114 115 -58 -111 0
-116 58 0
114 -116 111 0
-114 -116 -111 0
114 116 -58 -111 0
-114 116 -58 111 0
117 118 -113 0
117 -113 114 0
-117 118 113 0
-117 113 114 0
117 -113 -58 0
-117 113 -58 0
117 -118 113 58 -114 0
-117 -118 -113 58 -114 0
118 -58 114 0
-118 58 114 0
-119 114 0
118 -119 -58 0
-118 -119 58 0
118 119 58 -114 0
-118 119 -58 -114 0
-120 114 0
118 -120 58 0
-118 -120 -58 0
118 120 -58 -114 0
-118 120 58 -114 0
121 -117 118 0
121 -117 114 0
-121 117 118 0
-121 117 114 0
121 -122 -117 0
-121 -122 117 0
121 122 117 -118 -114 0
-121 122 -117 -118 -114 0
122 118 -114 0
-122 118 114 0
-123 118 0
122 -123 -114 0
-122 -123 114 0
122 123 -118 114 0
-122 123 -118 -114 0
-124 118 0
122 -124 114 0
-122 -124 -114 0
122 124 -118 -114 0
-122 124 -118 114 0
125 126 -121 0
125 -121 122 0
-125 126 121 0
-125 121 122 0
125 -121 -118 0
-125 121 -118 0
125 -126 121 118 -122 0
-125 -126 -121 118 -122 0
126 -118 122 0
-126 118 122 0
-127 122 0
126 -127 -118 0
-126 -127 118 0
126 127 118 -122 0
-126 127 -118 -122 0
-128 122 0
126 -128 118 0
-126 -128 -118 0
126 128 -118 -122 0
-126 128 118 -122 0
129 -125 126 0
129 -125 122 0
-129 125 126 0
-129 125 122 0
129 -130 -125 0
-129 -130 125 0
129 130 125 -126 -122 0
-129 130 -125 -126 -122 0
130 126 -122 0
-130 126 122 0
-131 126 0
130 -131 -122 0
-130 -131 122 0
130 131 -126 122 0
-130 131 -126 -122 0
-132 126 0
130 -132 122 0
-130 -132 -122 0
130 132 -126 -122 0
-130 132 -126 122 0
133 -129 126 0
133 -129 130 0
-133 129 126 0
-133 129 130 0
133 -134 -129 0
-133 -134 129 0
133 134 129 -126 -130 0
-133 134 -129 -126 -130 0
134 126 -130 0
-134 126 130 0
-135 126 0
134 -135 -130 0
-134 -135 130 0
134 135 -126 130 0
-134 135 -126 -130 0
-136 126 0
134 -136 130 0
-134 -136 -130 0
134 136 -126 -130 0
-134 136 -126 130 0
137 -133 99 0
137 -133 134 0
-137 133 99 0
-137 133 134 0
137 -133 126 -107 0
137 -133 -126 107 0
-137 133 126 -107 0
-137 133 -126 107 0
137 133 -99 126 107 -134 0
137 133 -99 -126 -107 -134 0
-137 -133 -99 126 107 -134 0
-137 -133 -99 -126 -107 -134 0
139 99 -126 0
139 -99 126 0
-139 99 126 0
-139 -99 -126 0
138 107 -134 0
138 -107 134 0
-138 107 134 0
-138 -107 -134 0
140 -137 112 0
140 -137 80 0
-140 137 112 0
-140 137 80 0
140 -141 -137 0
-140 -141 137 0
140 141 137 -112 -80 0
-140 141 -137 -112 -80 0
141 112 -80 0
-141 112 80 0
-142 112 0
141 -142 -80 0
-141 -142 80 0
141 142 -112 80 0
-141 142 -112 -80 0
-143 112 0
141 -143 80 0
-141 -143 -80 0
141 143 -112 -80 0
-141 143 -112 80 0
144 145 -140 0
144 -140 141 0
-144 145 140 0
-144 140 141 0
144 -140 -112 0
-144 140 -112 0
144 -145 140 112 -141 0
-144 -145 -140 112 -141 0
145 -112 141 0
-145 112 141 0
-146 141 0
145 -146 -112 0
-145 -146 112 0
145 146 112 -141 0
-145 146 -112 -141 0
-147 141 0
145 -147 112 0
-145 -147 -112 0
145 147 -112 -141 0
-145 147 112 -141 0
148 -144 145 0
148 -144 141 0
-148 144 145 0
-148 144 141 0
148 -149 -144 0
-148 -149 144 0
148 149 144 -145 -141 0
-148 149 -144 -145 -141 0
149 145 -141 0
-149 145 141 0
-150 145 0
149 -150 -141 0
-149 -150 141 0
149 150 -145 141 0
-149 150 -145 -141 0
-151 145 0
149 -151 141 0
-149 -151 -141 0
149 151 -145 -141 0
-149 151 -145 141 0
152 153 -148 0
152 -148 149 0
-152 153 148 0
-152 148 149 0
152 -148 -145 0
-152 148 -145 0
152 -153 148 145 -149 0
-152 -153 -148 145 -149 0
153 -145 149 0
-153 145 149 0
-154 149 0
153 -154 -145 0
-153 -154 145 0
153 154 145 -149 0
-153 154 -145 -149 0
-155 149 0
153 -155 145 0
-153 -155 -145 0
153 155 -145 -149 0
-153 155 145 -149 0
156 -152 153 0
156 -152 149 0
-156 152 153 0
-156 152 149 0
156 -157 -152 0
-156 -157 152 0
156 157 152 -153 -149 0
-156 157 -152 -153 -149 0
157 153 -149 0
-157 153 149 0
-158 153 0
157 -158 -149 0
-157 -158 149 0
157 158 -153 149 0
-157 158 -153 -149 0
-159 153 0
157 -159 149 0
-157 -159 -149 0
157 159 -153 -149 0
-157 159 -153 149 0
160 -156 153 0
160 -156 157 0
-160 156 153 0
-160 156 157 0
160 -161 -156 0
-160 -161 156 0
160 161 156 -153 -157 0
-160 161 -156 -153 -157 0
161 153 -157 0
-161 153 157 0
-162 153 0
161 -162 -157 0
-161 -162 157 0
161 162 -153 157 0
-161 162 -153 -157 0
-163 153 0
161 -163 157 0
-161 -163 -157 0
161 163 -153 -157 0
-161 163 -153 157 0
164 -160 99 0
164 -160 161 0
-164 160 99 0
-164 160 161 0
164 -160 153 -138 0
164 -160 -153 138 0
-164 160 153 -138 0
-164 160 -153 138 0
164 160 -99 153 138 -161 0
164 160 -99 -153 -138 -161 0
-164 -160 -99 153 138 -161 0
-164 -160 -99 -153 -138 -161 0
166 99 -153 0
166 -99 153 0
-166 99 153 0
-166 -99 -153 0
165 138 -161 0
165 -138 161 0
-165 138 161 0
-165 -138 -161 0
167 -164 99 0
167 -164 165 0
-167 164 99 0
-167 164 165 0
167 -168 -164 0
-167 -168 164 0
167 168 164 -99 -165 0
-167 168 -164 -99 -165 0
168 99 -165 0
-168 99 165 0
-169 99 0
168 -169 -165 0
-168 -169 165 0
168 169 -99 165 0
-168 169 -99 -165 0
-170 99 0
168 -170 165 0
-168 -170 -165 0
168 170 -99 -165 0
-168 170 -99 165 0
171 172 -167 0
171 -167 168 0
-171 172 167 0
-171 167 168 0
171 -167 -99 0
-171 167 -99 0
171 -172 167 99 -168 0
-171 -172 -167 99 -168 0
172 -99 168 0
-172 99 168 0
-173 168 0
172 -173 -99 0
-172 -173 99 0
172 173 99 -168 0
-172 173 -99 -168 0
-174 168 0
172 -174 99 0
-172 -174 -99 0
172 174 -99 -168 0
-172 174 99 -168 0
175 -171 172 0
175 -171 168 0
-175 171 172 0
-175 171 168 0
175 -176 -171 0
-175 -176 171 0
175 176 171 -172 -168 0
-175 176 -171 -172 -168 0
176 172 -168 0
-176 172 168 0
-177 172 0
176 -177 -168 0
-176 -177 168 0
176 177 -172 168 0
-176 177 -172 -168 0
-178 172 0
176 -178 168 0
-176 -178 -168 0
176 178 -172 -168 0
-176 178 -172 168 0
179 180 -175 0
179 -175 176 0
-179 180 175 0
-179 175 176 0
179 -175 -172 0
-179 175 -172 0
179 -180 175 172 -176 0
-179 -180 -175 172 -176 0
180 -172 176 0
-180 172 176 0
-181 176 0
180 -181 -172 0
-180 -181 172 0
180 181 172 -176 0
-180 181 -172 -176 0
-182 176 0
180 -182 172 0
-180 -182 -172 0
180 182 -172 -176 0
-180 182 172 -176 0
183 -179 180 0
183 -179 176 0
-183 179 180 0
-183 179 176 0
183 -184 -179 0
-183 -184 179 0
183 184 179 -180 -176 0
-183 184 -179 -180 -176 0
184 180 -176 0
-184 180 176 0
-185 180 0
184 -185 -176 0
-184 -185 176 0
184 185 -180 176 0
-184 185 -180 -176 0
-186 180 0
184 -186 176 0
-184 -186 -176 0
184 186 -180 -176 0
-184 186 -180 176 0
187 -183 180 0
187 -183 184 0
-187 183 180 0
-187 183 184 0
187 -188 -183 0
-187 -188 183 0
187 188 183 -180 -184 0
-187 188 -183 -180 -184 0
188 180 -184 0
-188 180 184 0
-189 180 0
188 -189 -184 0
-188 -189 184 0
188 189 -180 184 0
-188 189 -180 -184 0
-190 180 0
188 -190 184 0
-188 -190 -184 0
188 190 -180 -184 0
-188 190 -180 184 0
191 -187 139 0
191 -187 161 0
-191 187 139 0
-191 187 161 0
191 -187 166 -134 0
191 -187 -166 134 0
-191 187 166 -134 0
-191 187 -166 134 0
191 187 -139 166 134 -161 0
191 187 -139 -166 -134 -161 0
-191 -187 -139 166 134 -161 0
-191 -187 -139 -166 -134 -161 0
193 139 -166 0
193 -139 166 0
-193 139 166 0
-193 -139 -166 0
192 134 -161 0
192 -134 161 0
-192 134 161 0
-192 -134 -161 0
194 -191 139 0
194 -191 192 0
-194 191 139 0
-194 191 192 0
194 -195 -191 0
-194 -195 191 0
194 195 191 -139 -192 0
-194 195 -191 -139 -192 0
195 139 -192 0
-195 139 192 0
-196 139 0
195 -196 -192 0
-195 -196 192 0
195 196 -139 192 0
-195 196 -139 -192 0
-197 139 0
195 -197 192 0
-195 -197 -192 0
195 197 -139 -192 0
-195 197 -139 192 0
198 199 -194 0
198 -194 195 0
-198 199 194 0
-198 194 195 0
198 -194 -139 0
-198 194 -139 0
198 -199 194 139 -195 0
-198 -199 -194 139 -195 0
199 -139 195 0
-199 139 195 0
-200 195 0
199 -200 -139 0
-199 -200 139 0
199 200 139 -195 0
-199 200 -139 -195 0
-201 195 0
199 -201 139 0
-199 -201 -139 0
199 201 -139 -195 0
-199 201 139 -195 0
202 -198 199 0
202 -198 195 0
-202 198 199 0
-202 198 195 0
202 -203 -198 0
-202 -203 198 0
202 203 198 -199 -195 0
-202 203 -198 -199 -195 0
203 199 -195 0
-203 199 195 0
-204 199 0
203 -204 -195 0
-203 -204 195 0
203 204 -199 195 0
-203 204 -199 -195 0
-205 199 0
203 -205 195 0
-203 -205 -195 0
203 205 -199 -195 0
-203 205 -199 195 0
206 207 -202 0
206 -202 203 0
-206 207 202 0
-206 202 203 0
206 -202 -199 0
-206 202 -199 0
206 -207 202 199 -203 0
-206 -207 -202 199 -203 0
207 -199 203 0
-207 199 203 0
-208 203 0
207 -208 -199 0
-207 -208 199 0
207 208 199 -203 0
-207 208 -199 -203 0
-209 203 0
207 -209 199 0
-207 -209 -199 0
207 209 -199 -203 0
-207 209 199 -203 0
210 -206 207 0
210 -206 203 0
-210 206 207 0
-210 206 203 0
210 -211 -206 0
-210 -211 206 0
210 211 206 -207 -203 0
-210 211 -206 -207 -203 0
211 207 -203 0
-211 207 203 0
-212 207 0
211 -212 -203 0
-211 -212 203 0
211 212 -207 203 0
-211 212 -207 -203 0
-213 207 0
211 -213 203 0
-211 -213 -203 0
211 213 -207 -203 0
-211 213 -207 203 0
214 -210 207 0
214 -210 211 0
-214 210 207 0
-214 210 211 0
214 -215 -210 0
-214 -215 210 0
214 215 210 -207 -211 0
-214 215 -210 -207 -211 0
215 207 -211 0
-215 207 211 0
-216 207 0
215 -216 -211 0
-215 -216 211 0
215 216 -207 211 0
-215 216 -207 -211 0
-217 207 0
215 -217 211 0
-215 -217 -211 0
215 217 -207 -211 0
-215 217 -207 211 0
218 -214 180 0
218 -214 215 0
-218 214 180 0
-218 214 215 0
218 -214 207 -188 0
218 -214 -207 188 0
-218 214 207 -188 0
-218 214 -207 188 0
218 214 -180 207 188 -215 0
218 214 -180 -207 -188 -215 0
-218 -214 -180 207 188 -215 0
-218 -214 -180 -207 -188 -215 0
220 180 -207 0
220 -180 207 0
-220 180 207 0
-220 -180 -207 0
219 188 -215 0
219 -188 215 0
-219 188 215 0
-219 -188 -215 0
221 -218 193 0
221 -218 161 0
-221 218 193 0
-221 218 161 0
221 -222 -218 0
-221 -222 218 0
221 222 218 -193 -161 0
-221 222 -218 -193 -161 0
222 193 -161 0
-222 193 161 0
-223 193 0
222 -223 -161 0
-222 -223 161 0
222 223 -193 161 0
-222 223 -193 -161 0
-224 193 0
222 -224 161 0
-222 -224 -161 0
222 224 -193 -161 0
-222 224 -193 161 0
225 226 -221 0
225 -221 222 0
-225 226 221 0
-225 221 222 0
225 -221 -193 0
-225 221 -193 0
225 -226 221 193 -222 0
-225 -226 -221 193 -222 0
226 -193 222 0
-226 193 222 0
-227 222 0
226 -227 -193 0
-226 -227 193 0
226 227 193 -222 0
-226 227 -193 -222 0
-228 222 0
226 -228 193 0
-226 -228 -193 0
226 228 -193 -222 0
-226 228 193 -222 0
229 -225 226 0
229 -225 222 0
-229 225 226 0
-229 225 222 0
229 -230 -225 0
-229 -230 225 0
229 230 225 -226 -222 0
-229 230 -225 -226 -222 0
230 226 -222 0
-230 226 222 0
-231 226 0
230 -231 -222 0
-230 -231 222 0
230 231 -226 222 0
-230 231 -226 -222 0
-232 226 0
230 -232 222 0
-230 -232 -222 0
230 232 -226 -222 0
-230 232 -226 222 0
233 234 -229 0
233 -229 230 0
-233 234 229 0
-233 229 230 0
233 -229 -226 0
-233 229 -226 0
233 -234 229 226 -230 0
-233 -234 -229 226 -230 0
234 -226 230 0
-234 226 230 0
-235 230 0
234 -235 -226 0
-234 -235 226 0
234 235 226 -230 0
-234 235 -226 -230 0
-236 230 0
234 -236 226 0
-234 -236 -226 0
234 236 -226 -230 0
-234 236 226 -230 0
237 -233 234 0
237 -233 230 0
-237 233 234 0
-237 233 230 0
237 -238 -233 0
-237 -238 233 0
237 238 233 -234 -230 0
-237 238 -233 -234 -230 0
238 234 -230 0
-238 234 230 0
-239 234 0
238 -239 -230 0
-238 -239 230 0
238 239 -234 230 0
-238 239 -234 -230 0
-240 234 0
238 -240 230 0
-238 -240 -230 0
238 240 -234 -230 0
-238 240 -234 230 0
241 -237 234 0
241 -237 238 0
-241 237 234 0
-241 237 238 0
241 -242 -237 0
-241 -242 237 0
241 242 237 -234 -238 0
-241 242 -237 -234 -238 0
242 234 -238 0
-242 234 238 0
-243 234 0
242 -243 -238 0
-242 -243 238 0
242 243 -234 238 0
-242 243 -234 -238 0
-244 234 0
242 -244 238 0
-242 -244 -238 0
242 244 -234 -238 0
-242 244 -234 238 0
245 -241 180 0
245 -241 242 0
-245 241 180 0
-245 241 242 0
245 -241 234 -219 0
245 -241 -234 219 0
-245 241 234 -219 0
-245 241 -234 219 0
245 241 -180 234 219 -242 0
245 241 -180 -234 -219 -242 0
-245 -241 -180 234 219 -242 0
-245 -241 -180 -234 -219 -242 0
247 180 -234 0
247 -180 234 0
-247 180 234 0
-247 -180 -234 0
246 219 -242 0
246 -219 242 0
-246 219 242 0
-246 -219 -242 0
248 -245 180 0
248 -245 246 0
-248 245 180 0
-248 245 246 0
248 -249 -245 0
-248 -249 245 0
248 249 245 -180 -246 0
-248 249 -245 -180 -246 0
249 180 -246 0
-249 180 246 0
-250 180 0
249 -250 -246 0
-249 -250 246 0
249 250 -180 246 0
-249 250 -180 -246 0
-251 180 0
249 -251 246 0
-249 -251 -246 0
249 251 -180 -246 0
-249 251 -180 246 0
252 253 -248 0
252 -248 249 0
-252 253 248 0
-252 248 249 0
252 -248 -180 0
-252 248 -180 0
252 -253 248 180 -249 0
-252 -253 -248 180 -249 0
253 -180 249 0
-253 180 249 0
-254 249 0
253 -254 -180 0
-253 -254 180 0
253 254 180 -249 0
-253 254 -180 -249 0
-255 249 0
253 -255 180 0
-253 -255 -180 0
253 255 -180 -249 0
-253 255 180 -249 0
256 -252 253 0
256 -252 249 0
-256 252 253 0
-256 252 249 0
256 -257 -252 0
-256 -257 252 0
256 257 252 -253 -249 0
-256 257 -252 -253 -249 0
257 253 -249 0
-257 253 249 0
-258 253 0
257 -258 -249 0
-257 -258 249 0
257 258 -253 249 0
-257 258 -253 -249 0
-259 253 0
257 -259 249 0
-257 -259 -249 0
257 259 -253 -249 0
-257 259 -253 249 0
260 261 -256 0
260 -256 257 0
-260 261 256 0
-260 256 257 0
260 -256 -253 0
-260 256 -253 0
260 -261 256 253 -257 0
-260 -261 -256 253 -257 0
261 -253 257 0
-261 253 257 0
-262 257 0
261 -262 -253 0
-261 -262 253 0
261 262 253 -257 0
-261 262 -253 -257 0
-263 257 0
261 -263 253 0
-261 -263 -253 0
261 263 -253 -257 0
-261 263 253 -257 0
264 -260 261 0
264 -260 257 0
-264 260 261 0
-264 260 257 0
264 -265 -260 0
-264 -265 260 0
264 265 260 -261 -257 0
-264 265 -260 -261 -257 0
265 261 -257 0
-265 261 257 0
-266 261 0
265 -266 -257 0
-265 -266 257 0
265 266 -261 257 0
-265 266 -261 -257 0
-267 261 0
265 -267 257 0
-265 -267 -257 0
265 267 -261 -257 0
-265 267 -261 257 0
268 -264 261 0
268 -264 265 0
-268 264 261 0
-268 264 265 0
268 -269 -264 0
-268 -269 264 0
268 269 264 -261 -265 0
-268 269 -264 -261 -265 0
269 261 -265 0
-269 261 265 0
-270 261 0
269 -270 -265 0
-269 -270 265 0
269 270 -261 265 0
-269 270 -261 -265 0
-271 261 0
269 -271 265 0
-269 -271 -265 0
269 271 -261 -265 0
-269 271 -261 265 0
272 -268 220 0
272 -268 242 0
-272 268 220 0
-272 268 242 0
272 -268 247 -215 0
272 -268 -247 215 0
-272 268 247 -215 0
-272 268 -247 215 0
272 268 -220 247 215 -242 0
272 268 -220 -247 -215 -242 0
-272 -268 -220 247 215 -242 0
-272 -268 -220 -247 -215 -242 0
274 220 -247 0
274 -220 247 0
-274 220 247 0
-274 -220 -247 0
273 215 -242 0
273 -215 242 0
-273 215 242 0
-273 -215 -242 0
275 -272 220 0
275 -272 273 0
-275 272 220 0
-275 272 273 0
275 -276 -272 0
-275 -276 272 0
275 276 272 -220 -273 0
-275 276 -272 -220 -273 0
276 220 -273 0
-276 220 273 0
-277 220 0
276 -277 -273 0
-276 -277 273 0
276 277 -220 273 0
-276 277 -220 -273 0
-278 220 0
276 -278 273 0
-276 -278 -273 0
276 278 -220 -273 0
-276 278 -220 273 0
279 280 -275 0
279 -275 276 0
-279 280 275 0
-279 275 276 0
279 -275 -220 0
-279 275 -220 0
279 -280 275 220 -276 0
-279 -280 -275 220 -276 0
280 -220 276 0
-280 220 276 0
-281 276 0
280 -281 -220 0
-280 -281 220 0
280 281 220 -276 0
-280 281 -220 -276 0
-282 276 0
280 -282 220 0
-280 -282 -220 0
280 282 -220 -276 0
-280 282 220 -276 0
283 -279 280 0
283 -279 276 0
-283 279 280 0
-283 279 276 0
283 -284 -279 0
-283 -284 279 0
283 284 279 -280 -276 0
-283 284 -279 -280 -276 0
284 280 -276 0
-284 280 276 0
-285 280 0
284 -285 -276 0
-284 -285 276 0
284 285 -280 276 0
-284 285 -280 -276 0
-286 280 0
284 -286 276 0
-284 -286 -276 0
284 286 -280 -276 0
-284 286 -280 276 0
287 288 -283 0
287 -283 284 0
-287 288 283 0
-287 283 284 0
287 -283 -280 0
-287 283 -280 0
287 -288 283 280 -284 0
-287 -288 -283 280 -284 0
288 -280 284 0
-288 280 284 0
-289 284 0
288 -289 -280 0
-288 -289 280 0
288 289 280 -284 0
-288 289 -280 -284 0
-290 284 0
288 -290 280 0
-288 -290 -280 0
288 290 -280 -284 0
-288 290 280 -284 0
291 -287 288 0
291 -287 284 0
-291 287 288 0
-291 287 284 0
291 -292 -287 0
-291 -292 287 0
291 292 287 -288 -284 0
-291 292 -287 -288 -284 0
292 288 -284 0
-292 288 284 0
-293 288 0
292 -293 -284 0
-292 -293 284 0
292 293 -288 284 0
-292 293 -288 -284 0
-294 288 0
292 -294 284 0
-292 -294 -284 0
292 294 -288 -284 0
-292 294 -288 284 0
295 -291 288 0
295 -291 292 0
-295 291 288 0
-295 291 292 0
295 -296 -291 0
-295 -296 291 0
295 296 291 -288 -292 0
-295 296 -291 -288 -292 0
296 288 -292 0
-296 288 292 0
-297 288 0
296 -297 -292 0
-296 -297 292 0
296 297 -288 292 0
-296 297 -288 -292 0
-298 288 0
296 -298 292 0
-296 -298 -292 0
296 298 -288 -292 0
-296 298 -288 292 0
299 -295 274 0
299 -295 242 0
-299 295 274 0
-299 295 242 0
299 -300 -295 0
-299 -300 295 0
299 300 295 -274 -242 0
-299 300 -295 -274 -242 0
300 274 -242 0
-300 274 242 0
-301 274 0
300 -301 -242 0
-300 -301 242 0
300 301 -274 242 0
-300 301 -274 -242 0
-302 274 0
300 -302 242 0
-300 -302 -242 0
300 302 -274 -242 0
-300 302 -274 242 0
303 304 -299 0
303 -299 300 0
-303 304 299 0
-303 299 300 0
303 -299 -274 0
-303 299 -274 0
303 -304 299 274 -300 0
-303 -304 -299 274 -300 0
304 -274 300 0
-304 274 300 0
-305 300 0
304 -305 -274 0
-304 -305 274 0
304 305 274 -300 0
-304 305 -274 -300 0
-306 300 0
304 -306 274 0
-304 -306 -274 0
304 306 -274 -300 0
-304 306 274 -300 0
307 -303 304 0
307 -303 300 0
-307 303 304 0
-307 303 300 0
307 -308 -303 0
-307 -308 303 0
307 308 303 -304 -300 0
-307 308 -303 -304 -300 0
308 304 -300 0
-308 304 300 0
-309 304 0
308 -309 -300 0
-308 -309 300 0
308 309 -304 300 0
-308 309 -304 -300 0
-310 304 0
308 -310 300 0
-308 -310 -300 0
308 310 -304 -300 0
-308 310 -304 300 0
311 312 -307 0
311 -307 308 0
-311 312 307 0
-311 307 308 0
311 -307 -304 0
-311 307 -304 0
311 -312 307 304 -308 0
-311 -312 -307 304 -308 0
312 -304 308 0
-312 304 308 0
-313 308 0
312 -313 -304 0
-312 -313 304 0
312 313 304 -308 0
-312 313 -304 -308 0
-314 308 0
312 -314 304 0
-312 -314 -304 0
312 314 -304 -308 0
-312 314 304 -308 0
315 -311 312 0
315 -311 308 0
-315 311 312 0
-315 311 308 0
315 -316 -311 0
-315 -316 311 0
315 316 311 -312 -308 0
-315 316 -311 -312 -308 0
316 312 -308 0
-316 312 308 0
-317 312 0
316 -317 -308 0
-316 -317 308 0
316 317 -312 308 0
-316 317 -312 -308 0
-318 312 0
316 -318 308 0
-316 -318 -308 0
316 318 -312 -308 0
-316 318 -312 308 0
319 -315 312 0
319 -315 316 0
-319 315 312 0
-319 315 316 0
319 -320 -315 0
-319 -320 315 0
319 320 315 -312 -316 0
-319 320 -315 -312 -316 0
320 312 -316 0
-320 312 316 0
-321 312 0
320 -321 -316 0
-320 -321 316 0
320 321 -312 316 0
-320 321 -312 -316 0
-322 312 0
320 -322 316 0
-320 -322 -316 0
320 322 -312 -316 0
-320 322 -312 316 0
-261 0
-288 0
-296 0
-312 0
-320 0
